 Code  1533
 Dimension, Fixed Cost
   100        3000
 Facility, Client, Transportation Cost
     1       21           3
     1       26           2
     1       33           2
     1       39           2
     1       55           3
     1       87           0
     1       91           3
     1       92           1
     1       93           3
     1       94           0
     2       21           1
     2       39           1
     2       46           1
     2       49           0
     2       57           1
     2       65           3
     2       74           0
     2       78           3
     2       93           1
     2       99           3
     3       18           2
     3       43           0
     3       48           4
     3       49           2
     3       85           4
     3       90           1
     3       91           1
     3       96           1
     3       98           0
     3      100           0
     4        1           2
     4        9           4
     4       12           1
     4       21           3
     4       40           2
     4       69           4
     4       74           2
     4       77           2
     4       80           2
     4       92           3
     5        8           1
     5       26           0
     5       27           4
     5       31           4
     5       51           1
     5       62           0
     5       71           3
     5       72           1
     5       82           1
     5       89           4
     6        3           2
     6        5           1
     6        7           3
     6       27           0
     6       28           3
     6       29           0
     6       32           0
     6       45           1
     6       73           2
     6       85           3
     7        1           3
     7       14           3
     7       15           4
     7       20           3
     7       22           1
     7       32           1
     7       67           2
     7       78           4
     7       79           1
     7       80           4
     8       11           0
     8       32           2
     8       35           2
     8       39           1
     8       41           2
     8       50           4
     8       51           1
     8       54           1
     8       71           1
     8       83           3
     9       37           1
     9       44           3
     9       61           2
     9       76           1
     9       84           1
     9       91           2
     9       94           1
     9       95           3
     9       99           4
     9      100           4
    10        2           3
    10       25           0
    10       27           1
    10       31           3
    10       37           2
    10       42           3
    10       45           4
    10       46           0
    10       47           1
    10       72           1
    11       14           2
    11       17           3
    11       24           3
    11       30           0
    11       31           2
    11       35           4
    11       43           2
    11       49           2
    11       57           0
    11       73           3
    12        3           2
    12       10           2
    12       15           3
    12       33           4
    12       38           2
    12       46           4
    12       48           3
    12       81           1
    12       83           2
    12       85           0
    13        5           3
    13       18           3
    13       60           4
    13       62           4
    13       64           0
    13       82           0
    13       83           2
    13       90           4
    13       95           0
    13       96           4
    14       25           4
    14       26           4
    14       39           1
    14       58           4
    14       67           3
    14       69           2
    14       73           2
    14       77           4
    14       80           3
    14       87           1
    15       12           2
    15       23           2
    15       41           2
    15       53           1
    15       54           3
    15       76           3
    15       96           0
    15       97           1
    15       98           1
    15      100           0
    16       15           3
    16       25           3
    16       29           2
    16       42           2
    16       57           4
    16       64           4
    16       95           4
    16       98           0
    16       99           1
    16      100           4
    17        2           1
    17       17           0
    17       18           0
    17       19           0
    17       23           4
    17       33           4
    17       35           0
    17       43           0
    17       50           3
    17       62           0
    18       17           0
    18       31           4
    18       34           0
    18       52           0
    18       53           0
    18       57           2
    18       65           0
    18       79           4
    18       80           1
    18       81           1
    19        4           4
    19       11           3
    19       20           2
    19       22           0
    19       23           3
    19       41           2
    19       52           2
    19       59           3
    19       66           2
    19       69           1
    20        4           1
    20       13           4
    20       47           4
    20       51           0
    20       53           2
    20       56           2
    20       70           3
    20       82           4
    20       92           3
    20       97           4
    21       10           0
    21       11           1
    21       21           3
    21       23           0
    21       28           4
    21       37           4
    21       55           0
    21       65           1
    21       75           3
    21       77           1
    22       13           4
    22       24           2
    22       33           1
    22       35           2
    22       44           1
    22       48           0
    22       78           3
    22       88           2
    22       90           2
    22       93           2
    23       32           0
    23       49           0
    23       61           2
    23       63           0
    23       66           0
    23       71           0
    23       72           3
    23       80           1
    23       81           1
    23       89           3
    24        1           2
    24        8           1
    24       16           3
    24       21           3
    24       23           3
    24       33           1
    24       38           1
    24       61           0
    24       64           1
    24       77           3
    25        7           3
    25        8           3
    25       13           2
    25       22           4
    25       24           0
    25       35           1
    25       58           3
    25       66           3
    25       68           2
    25       71           0
    26       11           3
    26       21           2
    26       34           0
    26       52           1
    26       57           3
    26       60           0
    26       66           0
    26       68           1
    26       69           0
    26       74           4
    27        3           2
    27        6           3
    27       13           2
    27       18           4
    27       26           0
    27       33           4
    27       40           1
    27       48           0
    27       59           3
    27       60           1
    28       10           0
    28       22           3
    28       25           4
    28       29           0
    28       50           1
    28       68           2
    28       79           4
    28       91           1
    28       93           4
    28       94           1
    29        9           4
    29       18           3
    29       28           0
    29       49           1
    29       52           0
    29       58           1
    29       76           1
    29       91           2
    29       93           4
    29       94           0
    30       19           4
    30       48           1
    30       54           0
    30       75           4
    30       92           4
    30       95           2
    30       96           3
    30       97           3
    30       99           1
    30      100           2
    31        4           0
    31       12           2
    31       19           4
    31       30           0
    31       42           3
    31       49           0
    31       54           0
    31       74           3
    31       77           3
    31       91           1
    32        1           3
    32        2           4
    32       21           2
    32       24           4
    32       42           3
    32       47           3
    32       55           2
    32       63           4
    32       68           3
    32       71           2
    33       18           0
    33       28           0
    33       36           4
    33       49           3
    33       67           2
    33       73           0
    33       79           0
    33       90           4
    33       93           0
    33       94           0
    34        2           0
    34       14           1
    34       30           0
    34       37           3
    34       47           0
    34       59           4
    34       70           1
    34       81           2
    34       83           4
    34       86           0
    35        5           2
    35       19           1
    35       21           1
    35       37           0
    35       39           3
    35       64           0
    35       81           2
    35       87           1
    35       91           0
    35       98           0
    36        3           3
    36        8           4
    36       24           2
    36       33           2
    36       41           3
    36       57           2
    36       67           3
    36       70           3
    36       77           3
    36       88           2
    37        5           4
    37        6           3
    37       13           2
    37       38           1
    37       44           4
    37       45           0
    37       66           3
    37       72           3
    37       76           1
    37       79           2
    38        1           3
    38        6           4
    38        9           2
    38       25           1
    38       30           1
    38       32           1
    38       41           3
    38       42           4
    38       47           0
    38       51           0
    39        5           4
    39        8           2
    39       10           4
    39       20           2
    39       44           3
    39       46           2
    39       52           0
    39       63           2
    39       75           2
    39       76           2
    40        4           1
    40        5           3
    40       14           1
    40       15           3
    40       24           4
    40       39           4
    40       41           3
    40       54           0
    40       57           4
    40       58           1
    41       16           3
    41       43           0
    41       50           3
    41       51           1
    41       66           2
    41       80           0
    41       90           1
    41       92           4
    41       97           4
    41       99           3
    42       12           3
    42       26           0
    42       42           1
    42       46           1
    42       52           0
    42       53           2
    42       60           0
    42       61           2
    42       64           2
    42       65           3
    43       19           4
    43       35           3
    43       38           0
    43       44           2
    43       48           4
    43       54           4
    43       58           4
    43       61           1
    43       78           4
    43       82           2
    44        5           2
    44        7           4
    44       11           1
    44       23           1
    44       58           0
    44       66           0
    44       84           0
    44       85           0
    44       88           2
    44       91           2
    45        5           0
    45        6           2
    45       17           3
    45       36           2
    45       45           3
    45       47           1
    45       52           4
    45       55           3
    45       59           2
    45       63           1
    46       27           1
    46       36           4
    46       60           3
    46       61           1
    46       64           1
    46       67           2
    46       69           1
    46       78           1
    46       81           2
    46       82           2
    47        5           4
    47       18           1
    47       47           0
    47       50           3
    47       74           2
    47       75           4
    47       79           4
    47       85           1
    47       91           3
    47       92           2
    48       19           2
    48       20           1
    48       23           3
    48       47           0
    48       59           0
    48       79           1
    48       80           0
    48       82           2
    48       84           3
    48       86           0
    49        1           4
    49        7           1
    49        9           2
    49       29           2
    49       34           1
    49       38           4
    49       48           4
    49       56           1
    49       62           4
    49       70           4
    50        3           4
    50       18           4
    50       22           0
    50       42           0
    50       48           4
    50       65           0
    50       67           2
    50       68           3
    50       73           4
    50       76           0
    51        6           4
    51        7           4
    51       34           0
    51       55           3
    51       77           4
    51       84           4
    51       95           3
    51       96           1
    51       97           4
    51      100           1
    52        6           1
    52       10           0
    52       28           4
    52       31           1
    52       32           3
    52       56           1
    52       60           0
    52       76           0
    52       80           4
    52       83           3
    53       11           3
    53       15           0
    53       21           0
    53       23           1
    53       34           3
    53       39           3
    53       45           1
    53       52           2
    53       60           0
    53       63           4
    54       22           4
    54       35           3
    54       47           0
    54       52           3
    54       82           3
    54       95           0
    54       97           3
    54       98           1
    54       99           1
    54      100           2
    55        4           1
    55       10           3
    55       27           3
    55       30           1
    55       40           3
    55       53           0
    55       65           2
    55       68           2
    55       79           3
    55       83           3
    56       14           2
    56       20           3
    56       33           2
    56       39           4
    56       62           2
    56       69           0
    56       71           0
    56       72           1
    56       74           4
    56       77           2
    57        2           3
    57        6           1
    57       18           3
    57       33           2
    57       49           2
    57       51           1
    57       62           0
    57       72           0
    57       78           3
    57       86           1
    58        6           0
    58       56           4
    58       64           0
    58       73           3
    58       87           3
    58       89           4
    58       90           4
    58       94           4
    58       95           3
    58       96           1
    59        8           3
    59       23           0
    59       31           0
    59       40           4
    59       45           3
    59       51           2
    59       65           4
    59       75           4
    59       82           2
    59       84           3
    60        2           3
    60       22           4
    60       30           3
    60       36           3
    60       42           1
    60       43           1
    60       46           4
    60       50           4
    60       57           3
    60       75           0
    61        4           0
    61       10           4
    61       34           0
    61       38           3
    61       51           4
    61       86           2
    61       87           0
    61       88           2
    61       91           1
    61       94           1
    62       12           0
    62       22           3
    62       27           2
    62       43           4
    62       47           1
    62       56           0
    62       66           4
    62       83           4
    62       88           2
    62       89           2
    63        9           1
    63       15           3
    63       16           4
    63       20           0
    63       22           2
    63       26           3
    63       28           4
    63       34           4
    63       42           1
    63       45           3
    64        4           1
    64       37           3
    64       41           0
    64       44           1
    64       46           1
    64       59           4
    64       62           1
    64       68           0
    64       70           1
    64       84           1
    65        2           2
    65        3           1
    65       31           1
    65       53           2
    65       55           2
    65       66           4
    65       73           1
    65       75           0
    65       81           0
    65       85           2
    66       12           4
    66       44           0
    66       53           2
    66       58           4
    66       63           0
    66       78           0
    66       86           3
    66       87           3
    66       89           3
    66       92           0
    67        7           3
    67       14           0
    67       17           3
    67       20           0
    67       40           2
    67       50           2
    67       54           3
    67       59           3
    67       71           1
    67       76           0
    68        3           1
    68        4           3
    68       14           3
    68       17           1
    68       23           2
    68       33           2
    68       35           3
    68       36           2
    68       39           4
    68       40           3
    69        1           4
    69       15           3
    69       25           2
    69       36           1
    69       64           1
    69       69           4
    69       71           0
    69       73           3
    69       83           2
    69       86           0
    70        2           4
    70       24           3
    70       31           3
    70       38           3
    70       59           4
    70       71           3
    70       74           1
    70       78           3
    70       82           4
    70       83           3
    71       10           2
    71       17           3
    71       28           3
    71       32           2
    71       35           0
    71       43           0
    71       44           3
    71       63           3
    71       70           3
    71       71           2
    72        1           3
    72        3           0
    72       13           3
    72       44           3
    72       55           1
    72       58           0
    72       94           4
    72       98           0
    72       99           0
    72      100           1
    73       11           3
    73       15           1
    73       28           0
    73       38           0
    73       43           1
    73       61           1
    73       89           3
    73       96           0
    73       97           1
    73       98           0
    74        1           2
    74       15           3
    74       26           4
    74       36           3
    74       56           3
    74       85           4
    74       94           1
    74       96           1
    74       97           0
    74       98           4
    75        6           1
    75       12           1
    75       14           1
    75       53           4
    75       66           2
    75       93           0
    75       95           2
    75       96           3
    75       97           3
    75       99           0
    76        2           4
    76       20           3
    76       21           0
    76       32           2
    76       34           2
    76       36           4
    76       45           1
    76       50           1
    76       55           0
    76       62           4
    77        7           2
    77        8           4
    77       10           1
    77       11           3
    77       17           4
    77       19           3
    77       20           2
    77       27           0
    77       29           2
    77       31           0
    78        7           3
    78        9           3
    78       25           1
    78       35           4
    78       40           4
    78       55           4
    78       61           1
    78       80           4
    78       87           3
    78       89           2
    79        2           4
    79        3           2
    79        9           3
    79       13           4
    79       22           4
    79       30           2
    79       70           4
    79       87           1
    79       94           2
    79       98           0
    80        8           3
    80       10           2
    80       16           1
    80       25           3
    80       31           3
    80       34           0
    80       39           0
    80       59           1
    80       75           3
    80       77           0
    81        5           3
    81       16           3
    81       40           3
    81       41           2
    81       56           2
    81       61           3
    81       70           2
    81       75           0
    81       79           4
    81       85           1
    82        4           2
    82       12           1
    82       16           0
    82       37           4
    82       50           0
    82       67           2
    82       69           1
    82       85           1
    82       88           4
    82       92           1
    83       26           2
    83       32           1
    83       53           4
    83       54           3
    83       55           2
    83       56           2
    83       73           1
    83       74           4
    83       78           3
    83       90           0
    84       11           0
    84       12           0
    84       16           4
    84       19           3
    84       26           1
    84       29           0
    84       32           1
    84       36           3
    84       44           3
    84       64           3
    85       17           2
    85       27           4
    85       30           3
    85       38           4
    85       58           3
    85       59           1
    85       62           3
    85       68           2
    85       72           2
    85       78           4
    86        6           3
    86        7           2
    86        9           0
    86       24           1
    86       25           1
    86       37           3
    86       41           3
    86       45           1
    86       72           2
    86       75           1
    87       19           2
    87       37           0
    87       43           1
    87       48           1
    87       57           0
    87       60           2
    87       61           4
    87       68           1
    87       72           0
    87       93           4
    88        3           0
    88        4           2
    88        8           3
    88        9           0
    88       13           3
    88       15           2
    88       16           1
    88       25           0
    88       27           2
    88       48           1
    89        7           2
    89       24           0
    89       28           3
    89       65           4
    89       83           4
    89       86           1
    89       95           3
    89       96           4
    89       99           2
    89      100           3
    90       29           2
    90       60           0
    90       65           4
    90       67           3
    90       80           0
    90       81           1
    90       84           0
    90       86           4
    90       88           0
    90       89           2
    91        1           2
    91       16           3
    91       29           0
    91       42           0
    91       45           4
    91       46           3
    91       68           1
    91       70           1
    91       84           1
    91       86           0
    92       20           4
    92       24           4
    92       29           2
    92       30           2
    92       54           1
    92       56           2
    92       69           4
    92       72           3
    92       77           1
    92       88           4
    93        8           0
    93        9           3
    93       41           2
    93       74           4
    93       84           4
    93       93           2
    93       97           2
    93       98           0
    93       99           4
    93      100           2
    94       11           3
    94       12           2
    94       13           0
    94       14           3
    94       30           1
    94       37           2
    94       53           4
    94       54           4
    94       63           2
    94       64           0
    95       65           4
    95       69           2
    95       70           3
    95       81           0
    95       87           0
    95       88           1
    95       89           0
    95       90           3
    95       92           0
    95       93           2
    96       18           0
    96       29           3
    96       36           3
    96       40           3
    96       49           3
    96       60           1
    96       63           0
    96       76           1
    96       85           0
    96       86           3
    97       13           2
    97       17           0
    97       19           4
    97       27           0
    97       40           4
    97       43           4
    97       46           1
    97       52           1
    97       57           3
    97       58           1
    98       26           3
    98       34           2
    98       46           2
    98       51           1
    98       56           3
    98       62           4
    98       67           1
    98       73           2
    98       76           0
    98       79           3
    99       38           3
    99       49           0
    99       50           1
    99       51           4
    99       63           1
    99       74           3
    99       84           4
    99       87           3
    99       89           1
    99       90           1
   100       14           1
   100       16           0
   100       28           0
   100       67           4
   100       81           3
   100       82           2
   100       88           4
   100       90           1
   100       92           0
   100       95           1
